SCIP version 9.2.1 [precision: 8 byte] [memory: block] [mode: optimized] [LP solver: Soplex 7.1.3] [GitHash: 0d2d3c7c2d]
Copyright (c) 2002-2025 Zuse Institute Berlin (ZIB)

External libraries: 
  Soplex 7.1.3         Linear Programming Solver developed at Zuse Institute Berlin (soplex.zib.de) [GitHash: 60fd96f2]
  CppAD 20180000.0     Algorithmic Differentiation of C++ algorithms developed by B. Bell (github.com/coin-or/CppAD)
  ZLIB 1.2.11          General purpose compression library by J. Gailly and M. Adler (zlib.net)
  TinyCThread 1.2      small portable implementation of the C11 threads API (tinycthread.github.io)
  GMP 6.2.1            GNU Multiple Precision Arithmetic Library developed by T. Granlund (gmplib.org)
  ZIMPL 3.6.2          Zuse Institute Mathematical Programming Language developed by T. Koch (zimpl.zib.de)
  AMPL/MP 690e9e7      AMPL .nl file reader library (github.com/ampl/mp)
  PaPILO 2.4.1         parallel presolve for integer and linear optimization (github.com/scipopt/papilo) (built with TBB) [GitHash: 11974394]
  Nauty 2.8.8          Computing Graph Automorphism Groups by Brendan D. McKay (users.cecs.anu.edu.au/~bdm/nauty)
  sassy 1.1            Symmetry preprocessor by Markus Anders (github.com/markusa4/sassy)
  Ipopt 3.14.17        Interior Point Optimizer developed by A. Waechter et.al. (github.com/coin-or/Ipopt)

reading user parameter file </home/admsys/SCIP/SCIPOptSuite-9.2.1-Linux/only_time.set>

read problem </home/admsys/SCIP/SCIPOptSuite-9.2.1-Linux/inputs/new_tr/order_dag/dag285_down_left_input.lp>
============

original problem has 1954 variables (1922 bin, 32 int, 0 impl, 0 cont) and 4879 constraints

solve problem
=============

presolving:
(round 1, fast)       1221 del vars, 2571 del conss, 0 add conss, 558 chg bounds, 254 chg sides, 508 chg coeffs, 0 upgd conss, 0 impls, 777 clqs
(round 2, fast)       1221 del vars, 2682 del conss, 0 add conss, 558 chg bounds, 254 chg sides, 508 chg coeffs, 0 upgd conss, 0 impls, 777 clqs
   (0.1s) running MILP presolver
   (0.1s) MILP presolver (3 rounds): 71 aggregations, 0 fixings, 1 bound changes
(round 3, medium)     1292 del vars, 2682 del conss, 0 add conss, 560 chg bounds, 254 chg sides, 508 chg coeffs, 0 upgd conss, 0 impls, 635 clqs
(round 4, fast)       1292 del vars, 2875 del conss, 0 add conss, 560 chg bounds, 254 chg sides, 508 chg coeffs, 0 upgd conss, 0 impls, 635 clqs
(round 5, exhaustive) 1292 del vars, 2881 del conss, 0 add conss, 560 chg bounds, 254 chg sides, 508 chg coeffs, 0 upgd conss, 0 impls, 635 clqs
(round 6, exhaustive) 1292 del vars, 2881 del conss, 0 add conss, 560 chg bounds, 254 chg sides, 508 chg coeffs, 1436 upgd conss, 0 impls, 635 clqs
(round 7, exhaustive) 1292 del vars, 3645 del conss, 253 add conss, 560 chg bounds, 254 chg sides, 508 chg coeffs, 1436 upgd conss, 0 impls, 635 clqs
   (0.3s) probing cycle finished: starting next cycle
   (0.3s) symmetry computation started: requiring (bin +, int +, cont +), (fixed: bin -, int -, cont -)
   (0.3s) no symmetry present (symcode time: 0.00)
presolving (8 rounds: 8 fast, 5 medium, 4 exhaustive):
 1292 deleted vars, 3645 deleted constraints, 253 added constraints, 561 tightened bounds, 0 added holes, 254 changed sides, 508 changed coefficients
 5106 implications, 3224 cliques
presolved problem has 662 variables (631 bin, 31 int, 0 impl, 0 cont) and 1487 constraints
    145 constraints of type <varbound>
    124 constraints of type <setppc>
    253 constraints of type <and>
    562 constraints of type <linear>
    403 constraints of type <logicor>
transformed objective value is always integral (scale: 1)
Presolving Time: 0.25

 time | node  | left  |LP iter|LP it/n|mem/heur|mdpt |vars |cons |rows |cuts |sepa|confs|strbr|  dualbound   | primalbound  |  gap   | compl. 
p 0.3s|     1 |     0 |     0 |     - | vbounds|   0 | 662 |1492 |1740 |   0 |  0 |   4 |   0 | 6.062080e+05 | 1.343488e+06 | 121.62%| unknown
  0.6s|     1 |     0 |  2917 |     - |    19M |   0 | 662 |1503 |1740 |   0 |  0 |  15 |   0 | 6.825906e+05 | 1.343488e+06 |  96.82%| unknown
  0.6s|     1 |     0 |  2918 |     - |    20M |   0 | 662 |1510 |1740 |   0 |  0 |  22 |   0 | 6.825910e+05 | 1.343488e+06 |  96.82%| unknown
* 1.1s|     1 |     0 |  2918 |     - |    LP  |   0 | 662 |1510 |1740 |   0 |  0 |  22 |   0 | 6.825910e+05 | 1.196032e+06 |  75.22%| unknown
  1.3s|     1 |     0 |  5482 |     - |    21M |   0 | 662 |1535 |1790 |  50 |  1 |  22 |   0 | 7.089390e+05 | 1.196032e+06 |  68.71%| unknown
  1.3s|     1 |     0 |  5483 |     - |    21M |   0 | 662 |1535 |1787 |  50 |  1 |  22 |   0 | 7.089390e+05 | 1.196032e+06 |  68.71%| unknown
  1.3s|     1 |     0 |  5483 |     - |    21M |   0 | 662 |1535 |1787 |  50 |  1 |  22 |   0 | 7.089390e+05 | 1.196032e+06 |  68.71%| unknown
  3.6s|     1 |     0 | 19581 |     - |    21M |   0 | 662 |1535 |1849 | 112 |  2 |  22 |   0 | 7.091650e+05 | 1.196032e+06 |  68.65%| unknown
  3.6s|     1 |     0 | 19582 |     - |    21M |   0 | 662 |1535 |1841 | 112 |  2 |  22 |   0 | 7.091660e+05 | 1.196032e+06 |  68.65%| unknown
  6.1s|     1 |     0 | 33662 |     - |    23M |   0 | 662 |1535 |1928 | 199 |  3 |  22 |   0 | 7.091765e+05 | 1.196032e+06 |  68.65%| unknown
  6.1s|     1 |     0 | 33667 |     - |    23M |   0 | 662 |1535 |1922 | 199 |  3 |  22 |   0 | 7.091770e+05 | 1.196032e+06 |  68.65%| unknown
  8.2s|     1 |     0 | 47135 |     - |    23M |   0 | 662 |1535 |1984 | 261 |  4 |  22 |   0 | 7.093300e+05 | 1.196032e+06 |  68.61%| unknown
  8.2s|     1 |     0 | 47136 |     - |    24M |   0 | 662 |1535 |1976 | 261 |  4 |  22 |   0 | 7.093300e+05 | 1.196032e+06 |  68.61%| unknown
 10.5s|     1 |     0 | 60694 |     - |    24M |   0 | 662 |1535 |2035 | 320 |  5 |  22 |   0 | 7.094127e+05 | 1.196032e+06 |  68.59%| unknown
 10.5s|     1 |     0 | 60695 |     - |    24M |   0 | 662 |1535 |2030 | 320 |  5 |  22 |   0 | 7.094130e+05 | 1.196032e+06 |  68.59%| unknown
 time | node  | left  |LP iter|LP it/n|mem/heur|mdpt |vars |cons |rows |cuts |sepa|confs|strbr|  dualbound   | primalbound  |  gap   | compl. 
 12.5s|     1 |     0 | 72781 |     - |    25M |   0 | 662 |1535 |2076 | 366 |  6 |  22 |   0 | 7.101019e+05 | 1.196032e+06 |  68.43%| unknown
 12.5s|     1 |     0 | 72782 |     - |    25M |   0 | 662 |1535 |2073 | 366 |  6 |  22 |   0 | 7.101020e+05 | 1.196032e+06 |  68.43%| unknown
 14.5s|     1 |     0 | 85408 |     - |    25M |   0 | 662 |1535 |2131 | 424 |  7 |  22 |   0 | 7.130185e+05 | 1.196032e+06 |  67.74%| unknown
 14.6s|     1 |     0 | 85411 |     - |    25M |   0 | 662 |1535 |2122 | 424 |  7 |  22 |   0 | 7.130190e+05 | 1.196032e+06 |  67.74%| unknown
 17.2s|     1 |     0 |100396 |     - |    25M |   0 | 662 |1535 |2172 | 474 |  8 |  22 |   0 | 7.241584e+05 | 1.196032e+06 |  65.16%| unknown
 17.2s|     1 |     0 |100398 |     - |    25M |   0 | 662 |1536 |2030 | 474 |  8 |  23 |   0 | 7.241590e+05 | 1.196032e+06 |  65.16%| unknown
 19.1s|     1 |     0 |111885 |     - |    25M |   0 | 662 |1536 |2080 | 524 |  9 |  23 |   0 | 7.302067e+05 | 1.196032e+06 |  63.79%| unknown
 19.1s|     1 |     0 |111887 |     - |    25M |   0 | 662 |1539 |2065 | 524 |  9 |  26 |   0 | 7.302070e+05 | 1.196032e+06 |  63.79%| unknown
 21.2s|     1 |     0 |124750 |     - |    26M |   0 | 662 |1539 |2115 | 574 | 10 |  26 |   0 | 7.334143e+05 | 1.196032e+06 |  63.08%| unknown
 21.2s|     1 |     0 |124752 |     - |    26M |   0 | 662 |1539 |2093 | 574 | 10 |  26 |   0 | 7.334150e+05 | 1.196032e+06 |  63.08%| unknown
 22.9s|     1 |     0 |138001 |     - |    26M |   0 | 662 |1539 |2148 | 629 | 11 |  26 |   0 | 7.449345e+05 | 1.196032e+06 |  60.56%| unknown
 22.9s|     1 |     0 |138002 |     - |    26M |   0 | 662 |1541 |2004 | 629 | 11 |  28 |   0 | 7.449350e+05 | 1.196032e+06 |  60.56%| unknown
 24.3s|     1 |     0 |150823 |     - |    26M |   0 | 662 |1541 |2048 | 673 | 12 |  28 |   0 | 7.535830e+05 | 1.196032e+06 |  58.71%| unknown
 24.4s|     1 |     0 |150824 |     - |    26M |   0 | 662 |1541 |2047 | 673 | 12 |  28 |   0 | 7.535830e+05 | 1.196032e+06 |  58.71%| unknown
 25.9s|     1 |     0 |164124 |     - |    26M |   0 | 662 |1541 |2117 | 743 | 13 |  28 |   0 | 7.602165e+05 | 1.196032e+06 |  57.33%| unknown
 time | node  | left  |LP iter|LP it/n|mem/heur|mdpt |vars |cons |rows |cuts |sepa|confs|strbr|  dualbound   | primalbound  |  gap   | compl. 
 25.9s|     1 |     0 |164125 |     - |    26M |   0 | 662 |1541 |2111 | 743 | 13 |  28 |   0 | 7.602170e+05 | 1.196032e+06 |  57.33%| unknown
 27.3s|     1 |     0 |176354 |     - |    26M |   0 | 662 |1541 |2166 | 798 | 14 |  28 |   0 | 7.658542e+05 | 1.196032e+06 |  56.17%| unknown
 27.3s|     1 |     0 |176357 |     - |    26M |   0 | 662 |1541 |2056 | 798 | 14 |  28 |   0 | 7.658550e+05 | 1.196032e+06 |  56.17%| unknown
 29.0s|     1 |     0 |188713 |     - |    27M |   0 | 662 |1541 |2107 | 849 | 15 |  28 |   0 | 7.705214e+05 | 1.196032e+06 |  55.22%| unknown
 29.0s|     1 |     0 |188715 |     - |    27M |   0 | 662 |1541 |2102 | 849 | 15 |  28 |   0 | 7.705220e+05 | 1.196032e+06 |  55.22%| unknown
 30.5s|     1 |     0 |201984 |     - |    27M |   0 | 662 |1541 |2152 | 899 | 16 |  28 |   0 | 7.733999e+05 | 1.196032e+06 |  54.65%| unknown
 30.5s|     1 |     0 |201985 |     - |    27M |   0 | 662 |1541 |2152 | 899 | 16 |  28 |   0 | 7.734000e+05 | 1.196032e+06 |  54.65%| unknown
 32.1s|     1 |     0 |214909 |     - |    28M |   0 | 662 |1541 |2206 | 953 | 17 |  28 |   0 | 7.768709e+05 | 1.196032e+06 |  53.96%| unknown
 32.1s|     1 |     0 |214911 |     - |    28M |   0 | 662 |1541 |2094 | 953 | 17 |  28 |   0 | 7.768710e+05 | 1.196032e+06 |  53.96%| unknown
 33.8s|     1 |     0 |228500 |     - |    28M |   0 | 662 |1541 |2145 |1004 | 18 |  28 |   0 | 7.784599e+05 | 1.196032e+06 |  53.64%| unknown
 33.8s|     1 |     0 |228502 |     - |    28M |   0 | 662 |1542 |2145 |1004 | 18 |  29 |   0 | 7.784600e+05 | 1.196032e+06 |  53.64%| unknown
 35.4s|     1 |     0 |240798 |     - |    28M |   0 | 662 |1542 |2220 |1079 | 19 |  29 |   0 | 7.811988e+05 | 1.196032e+06 |  53.10%| unknown
 35.5s|     1 |     0 |240800 |     - |    28M |   0 | 662 |1542 |2220 |1079 | 19 |  29 |   0 | 7.811990e+05 | 1.196032e+06 |  53.10%| unknown
 36.9s|     1 |     0 |253224 |     - |    28M |   0 | 662 |1542 |2272 |1131 | 20 |  29 |   0 | 7.824322e+05 | 1.196032e+06 |  52.86%| unknown
 36.9s|     1 |     0 |253226 |     - |    28M |   0 | 662 |1542 |2108 |1131 | 20 |  29 |   0 | 7.824330e+05 | 1.196032e+06 |  52.86%| unknown
 time | node  | left  |LP iter|LP it/n|mem/heur|mdpt |vars |cons |rows |cuts |sepa|confs|strbr|  dualbound   | primalbound  |  gap   | compl. 
 38.5s|     1 |     0 |265815 |     - |    28M |   0 | 662 |1542 |2164 |1187 | 21 |  29 |   0 | 7.846382e+05 | 1.196032e+06 |  52.43%| unknown
 38.5s|     1 |     0 |265820 |     - |    28M |   0 | 662 |1543 |2163 |1187 | 21 |  30 |   0 | 7.846390e+05 | 1.196032e+06 |  52.43%| unknown
 40.0s|     1 |     0 |278378 |     - |    28M |   0 | 662 |1543 |2217 |1241 | 22 |  30 |   0 | 7.865611e+05 | 1.196032e+06 |  52.06%| unknown
 40.0s|     1 |     0 |278380 |     - |    28M |   0 | 662 |1543 |2216 |1241 | 22 |  30 |   0 | 7.865620e+05 | 1.196032e+06 |  52.06%| unknown
 41.3s|     1 |     0 |290331 |     - |    28M |   0 | 662 |1543 |2266 |1291 | 23 |  30 |   0 | 7.882460e+05 | 1.196032e+06 |  51.73%| unknown
 41.3s|     1 |     0 |290332 |     - |    28M |   0 | 662 |1543 |2125 |1291 | 23 |  30 |   0 | 7.882470e+05 | 1.196032e+06 |  51.73%| unknown
 42.8s|     1 |     0 |302620 |     - |    28M |   0 | 662 |1543 |2171 |1337 | 24 |  30 |   0 | 7.897291e+05 | 1.196032e+06 |  51.45%| unknown
 42.8s|     1 |     0 |302626 |     - |    28M |   0 | 662 |1543 |2171 |1337 | 24 |  30 |   0 | 7.897300e+05 | 1.196032e+06 |  51.45%| unknown
 44.3s|     1 |     0 |314809 |     - |    28M |   0 | 662 |1543 |2224 |1390 | 25 |  30 |   0 | 7.910396e+05 | 1.196032e+06 |  51.20%| unknown
 44.3s|     1 |     0 |314810 |     - |    28M |   0 | 662 |1543 |2224 |1390 | 25 |  30 |   0 | 7.910400e+05 | 1.196032e+06 |  51.20%| unknown
 45.7s|     1 |     0 |327478 |     - |    28M |   0 | 662 |1543 |2274 |1440 | 26 |  30 |   0 | 7.922013e+05 | 1.196032e+06 |  50.98%| unknown
 45.7s|     1 |     0 |327487 |     - |    28M |   0 | 662 |1543 |2112 |1440 | 26 |  30 |   0 | 7.922020e+05 | 1.196032e+06 |  50.98%| unknown
 46.9s|     1 |     0 |339376 |     - |    28M |   0 | 662 |1543 |2161 |1489 | 27 |  30 |   0 | 7.932349e+05 | 1.196032e+06 |  50.78%| unknown
 46.9s|     1 |     0 |339377 |     - |    28M |   0 | 662 |1543 |2161 |1489 | 27 |  30 |   0 | 7.932350e+05 | 1.196032e+06 |  50.78%| unknown
 48.4s|     1 |     0 |352539 |     - |    28M |   0 | 662 |1543 |2218 |1546 | 28 |  30 |   0 | 7.941564e+05 | 1.196032e+06 |  50.60%| unknown
 time | node  | left  |LP iter|LP it/n|mem/heur|mdpt |vars |cons |rows |cuts |sepa|confs|strbr|  dualbound   | primalbound  |  gap   | compl. 
 48.4s|     1 |     0 |352540 |     - |    29M |   0 | 662 |1543 |2218 |1546 | 28 |  30 |   0 | 7.941570e+05 | 1.196032e+06 |  50.60%| unknown
 50.0s|     1 |     0 |365234 |     - |    29M |   0 | 662 |1543 |2274 |1602 | 29 |  30 |   0 | 7.949809e+05 | 1.196032e+06 |  50.45%| unknown
 50.0s|     1 |     0 |365236 |     - |    29M |   0 | 662 |1543 |2146 |1602 | 29 |  30 |   0 | 7.949810e+05 | 1.196032e+06 |  50.45%| unknown
 51.6s|     1 |     0 |379383 |     - |    29M |   0 | 662 |1543 |2198 |1654 | 30 |  30 |   0 | 7.957193e+05 | 1.196032e+06 |  50.31%| unknown
 51.6s|     1 |     0 |379384 |     - |    29M |   0 | 662 |1543 |2198 |1654 | 30 |  30 |   0 | 7.957200e+05 | 1.196032e+06 |  50.31%| unknown
 53.8s|     1 |     0 |396161 |     - |    29M |   0 | 662 |1543 |2245 |1701 | 31 |  30 |   0 | 7.963828e+05 | 1.196032e+06 |  50.18%| unknown
 53.8s|     1 |     0 |396162 |     - |    29M |   0 | 662 |1543 |2244 |1701 | 31 |  30 |   0 | 7.963830e+05 | 1.196032e+06 |  50.18%| unknown
 55.5s|     1 |     0 |409887 |     - |    29M |   0 | 662 |1543 |2288 |1745 | 32 |  30 |   0 | 7.969792e+05 | 1.196032e+06 |  50.07%| unknown
 55.5s|     1 |     0 |409888 |     - |    29M |   0 | 662 |1543 |2141 |1745 | 32 |  30 |   0 | 7.969800e+05 | 1.196032e+06 |  50.07%| unknown
 57.5s|     1 |     0 |426035 |     - |    29M |   0 | 662 |1543 |2189 |1793 | 33 |  30 |   0 | 7.975170e+05 | 1.196032e+06 |  49.97%| unknown
 57.5s|     1 |     0 |426036 |     - |    29M |   0 | 662 |1543 |2188 |1793 | 33 |  30 |   0 | 7.975180e+05 | 1.196032e+06 |  49.97%| unknown
 59.0s|     1 |     0 |439720 |     - |    29M |   0 | 662 |1543 |2237 |1842 | 34 |  30 |   0 | 7.980023e+05 | 1.196032e+06 |  49.88%| unknown
 59.0s|     1 |     0 |439722 |     - |    29M |   0 | 662 |1544 |2237 |1842 | 34 |  31 |   0 | 7.980030e+05 | 1.196032e+06 |  49.88%| unknown
 60.6s|     1 |     0 |452939 |     - |    29M |   0 | 662 |1544 |2283 |1888 | 35 |  31 |   0 | 7.984401e+05 | 1.196032e+06 |  49.80%| unknown
 60.6s|     1 |     0 |452942 |     - |    29M |   0 | 662 |1544 |2130 |1888 | 35 |  31 |   0 | 7.984410e+05 | 1.196032e+06 |  49.80%| unknown
 time | node  | left  |LP iter|LP it/n|mem/heur|mdpt |vars |cons |rows |cuts |sepa|confs|strbr|  dualbound   | primalbound  |  gap   | compl. 
 62.3s|     1 |     0 |466359 |     - |    29M |   0 | 662 |1544 |2207 |1965 | 36 |  31 |   0 | 7.988331e+05 | 1.196032e+06 |  49.72%| unknown
 62.3s|     1 |     0 |466360 |     - |    29M |   0 | 662 |1544 |2207 |1965 | 36 |  31 |   0 | 7.988340e+05 | 1.196032e+06 |  49.72%| unknown
 64.1s|     1 |     0 |480943 |     - |    29M |   0 | 662 |1544 |2268 |2026 | 37 |  31 |   0 | 7.991932e+05 | 1.196032e+06 |  49.65%| unknown
 64.1s|     1 |     0 |480949 |     - |    29M |   0 | 662 |1544 |2268 |2026 | 37 |  31 |   0 | 7.991940e+05 | 1.196032e+06 |  49.65%| unknown
 65.8s|     1 |     0 |495040 |     - |    29M |   0 | 662 |1544 |2326 |2084 | 38 |  31 |   0 | 7.995193e+05 | 1.196032e+06 |  49.59%| unknown
 65.8s|     1 |     0 |495043 |     - |    29M |   0 | 662 |1544 |2191 |2084 | 38 |  31 |   0 | 7.995200e+05 | 1.196032e+06 |  49.59%| unknown
 67.5s|     1 |     0 |508538 |     - |    29M |   0 | 662 |1544 |2237 |2130 | 39 |  31 |   0 | 7.998150e+05 | 1.196032e+06 |  49.54%| unknown
 67.5s|     1 |     0 |508539 |     - |    29M |   0 | 662 |1544 |2237 |2130 | 39 |  31 |   0 | 7.998150e+05 | 1.196032e+06 |  49.54%| unknown
 69.2s|     1 |     0 |522079 |     - |    30M |   0 | 662 |1544 |2288 |2181 | 40 |  31 |   0 | 8.000828e+05 | 1.196032e+06 |  49.49%| unknown
 69.2s|     1 |     0 |522082 |     - |    30M |   0 | 662 |1544 |2288 |2181 | 40 |  31 |   0 | 8.000830e+05 | 1.196032e+06 |  49.49%| unknown
 70.8s|     1 |     0 |535540 |     - |    30M |   0 | 662 |1544 |2338 |2231 | 41 |  31 |   0 | 8.003262e+05 | 1.196032e+06 |  49.44%| unknown
 70.8s|     1 |     0 |535545 |     - |    30M |   0 | 662 |1544 |2187 |2231 | 41 |  31 |   0 | 8.003270e+05 | 1.196032e+06 |  49.44%| unknown
 72.5s|     1 |     0 |548812 |     - |    30M |   0 | 662 |1544 |2230 |2274 | 42 |  31 |   0 | 8.005479e+05 | 1.196032e+06 |  49.40%| unknown
 72.5s|     1 |     0 |548817 |     - |    30M |   0 | 662 |1544 |2230 |2274 | 42 |  31 |   0 | 8.005480e+05 | 1.196032e+06 |  49.40%| unknown
 74.0s|     1 |     0 |561477 |     - |    30M |   0 | 662 |1544 |2276 |2320 | 43 |  31 |   0 | 8.007488e+05 | 1.196032e+06 |  49.36%| unknown
 time | node  | left  |LP iter|LP it/n|mem/heur|mdpt |vars |cons |rows |cuts |sepa|confs|strbr|  dualbound   | primalbound  |  gap   | compl. 
 74.0s|     1 |     0 |561479 |     - |    30M |   0 | 662 |1544 |2276 |2320 | 43 |  31 |   0 | 8.007490e+05 | 1.196032e+06 |  49.36%| unknown
 75.6s|     1 |     0 |574687 |     - |    30M |   0 | 662 |1544 |2323 |2367 | 44 |  31 |   0 | 8.009317e+05 | 1.196032e+06 |  49.33%| unknown
 77.2s|     1 |     0 |587647 |     - |    30M |   0 | 662 |1544 |2174 |2367 | 44 |  31 |   0 | 8.009320e+05 | 1.196032e+06 |  49.33%| unknown
 78.8s|     1 |     0 |601498 |     - |    30M |   0 | 662 |1544 |2230 |2423 | 45 |  31 |   0 | 8.010983e+05 | 1.196032e+06 |  49.30%| unknown
 78.8s|     1 |     0 |601505 |     - |    30M |   0 | 662 |1545 |2230 |2423 | 45 |  32 |   0 | 8.010990e+05 | 1.196032e+06 |  49.30%| unknown
 80.3s|     1 |     0 |613879 |     - |    30M |   0 | 662 |1545 |2284 |2477 | 46 |  32 |   0 | 8.012503e+05 | 1.196032e+06 |  49.27%| unknown
 80.3s|     1 |     0 |613887 |     - |    30M |   0 | 662 |1545 |2284 |2477 | 46 |  32 |   0 | 8.012510e+05 | 1.196032e+06 |  49.27%| unknown
 81.8s|     1 |     0 |626638 |     - |    30M |   0 | 662 |1545 |2331 |2524 | 47 |  32 |   0 | 8.013887e+05 | 1.196032e+06 |  49.24%| unknown
 81.8s|     1 |     0 |626644 |     - |    30M |   0 | 662 |1548 |2193 |2524 | 47 |  35 |   0 | 8.013890e+05 | 1.196032e+06 |  49.24%| unknown
 83.3s|     1 |     0 |639076 |     - |    30M |   0 | 662 |1548 |2242 |2573 | 48 |  35 |   0 | 8.015145e+05 | 1.196032e+06 |  49.22%| unknown
 83.3s|     1 |     0 |639102 |     - |    30M |   0 | 662 |1548 |2242 |2573 | 48 |  35 |   0 | 8.015150e+05 | 1.196032e+06 |  49.22%| unknown
 85.0s|     1 |     0 |652813 |     - |    30M |   0 | 662 |1548 |2302 |2633 | 49 |  35 |   0 | 8.016293e+05 | 1.196032e+06 |  49.20%| unknown
 86.2s|     1 |     0 |663864 |     - |    30M |   0 | 662 |1549 |2302 |2633 | 49 |  36 |   0 | 8.016300e+05 | 1.196032e+06 |  49.20%| unknown
 88.3s|     1 |     0 |678898 |     - |    30M |   0 | 662 |1549 |2368 |2699 | 50 |  36 |   0 | 8.017341e+05 | 1.196032e+06 |  49.18%| unknown
 89.8s|     1 |     0 |691025 |     - |    30M |   0 | 662 |1549 |2229 |2699 | 50 |  36 |   0 | 8.017350e+05 | 1.196032e+06 |  49.18%| unknown
 time | node  | left  |LP iter|LP it/n|mem/heur|mdpt |vars |cons |rows |cuts |sepa|confs|strbr|  dualbound   | primalbound  |  gap   | compl. 
 91.4s|     1 |     0 |703487 |     - |    30M |   0 | 662 |1549 |2288 |2758 | 51 |  36 |   0 | 8.018062e+05 | 1.196032e+06 |  49.17%| unknown
 91.4s|     1 |     0 |703499 |     - |    30M |   0 | 662 |1549 |2288 |2758 | 51 |  36 |   0 | 8.018070e+05 | 1.196032e+06 |  49.17%| unknown
 93.0s|     1 |     0 |716891 |     - |    31M |   0 | 662 |1549 |2350 |2820 | 52 |  36 |   0 | 8.018954e+05 | 1.196032e+06 |  49.15%| unknown
 94.5s|     1 |     0 |729218 |     - |    31M |   0 | 662 |1549 |2350 |2820 | 52 |  36 |   0 | 8.018960e+05 | 1.196032e+06 |  49.15%| unknown
 96.2s|     1 |     0 |742028 |     - |    31M |   0 | 662 |1549 |2406 |2876 | 53 |  36 |   0 | 8.019765e+05 | 1.196032e+06 |  49.14%| unknown
 96.2s|     1 |     0 |742035 |     - |    31M |   0 | 662 |1549 |2277 |2876 | 53 |  36 |   0 | 8.019770e+05 | 1.196032e+06 |  49.14%| unknown
 97.8s|     1 |     0 |755320 |     - |    31M |   0 | 662 |1549 |2324 |2923 | 54 |  36 |   0 | 8.020504e+05 | 1.196032e+06 |  49.12%| unknown
 97.9s|     1 |     0 |755324 |     - |    31M |   0 | 662 |1550 |2324 |2923 | 54 |  37 |   0 | 8.020510e+05 | 1.196032e+06 |  49.12%| unknown
 99.5s|     1 |     0 |768000 |     - |    31M |   0 | 662 |1550 |2371 |2970 | 55 |  37 |   0 | 8.021179e+05 | 1.196032e+06 |  49.11%| unknown
 99.5s|     1 |     0 |768004 |     - |    31M |   0 | 662 |1550 |2371 |2970 | 55 |  37 |   0 | 8.021180e+05 | 1.196032e+06 |  49.11%| unknown
  101s|     1 |     0 |781916 |     - |    31M |   0 | 662 |1550 |2417 |3016 | 56 |  37 |   0 | 8.021790e+05 | 1.196032e+06 |  49.10%| unknown
  103s|     1 |     0 |794833 |     - |    31M |   0 | 662 |1551 |2277 |3016 | 56 |  38 |   0 | 8.021800e+05 | 1.196032e+06 |  49.10%| unknown
  104s|     1 |     0 |806187 |     - |    31M |   0 | 662 |1551 |2329 |3068 | 57 |  38 |   0 | 8.022356e+05 | 1.196032e+06 |  49.09%| unknown
  104s|     1 |     0 |806189 |     - |    31M |   0 | 662 |1553 |2329 |3068 | 57 |  40 |   0 | 8.022360e+05 | 1.196032e+06 |  49.09%| unknown
  106s|     1 |     0 |818984 |     - |    31M |   0 | 662 |1553 |2376 |3115 | 58 |  40 |   0 | 8.022866e+05 | 1.196032e+06 |  49.08%| unknown
 time | node  | left  |LP iter|LP it/n|mem/heur|mdpt |vars |cons |rows |cuts |sepa|confs|strbr|  dualbound   | primalbound  |  gap   | compl. 
  106s|     1 |     0 |819004 |     - |    31M |   0 | 662 |1553 |2376 |3115 | 58 |  40 |   0 | 8.022870e+05 | 1.196032e+06 |  49.08%| unknown
  108s|     1 |     0 |832402 |     - |    31M |   0 | 662 |1553 |2441 |3180 | 59 |  40 |   0 | 8.023331e+05 | 1.196032e+06 |  49.07%| unknown
  108s|     1 |     0 |832406 |     - |    31M |   0 | 662 |1553 |2284 |3180 | 59 |  40 |   0 | 8.023340e+05 | 1.196032e+06 |  49.07%| unknown
  110s|     1 |     0 |845632 |     - |    31M |   0 | 662 |1553 |2345 |3241 | 60 |  40 |   0 | 8.023761e+05 | 1.196032e+06 |  49.06%| unknown
  110s|     1 |     0 |845663 |     - |    31M |   0 | 662 |1555 |2345 |3241 | 60 |  42 |   0 | 8.023770e+05 | 1.196032e+06 |  49.06%| unknown
  111s|     1 |     0 |858262 |     - |    31M |   0 | 662 |1555 |2403 |3299 | 61 |  42 |   0 | 8.024065e+05 | 1.196032e+06 |  49.06%| unknown
  111s|     1 |     0 |858279 |     - |    31M |   0 | 662 |1555 |2403 |3299 | 61 |  42 |   0 | 8.024070e+05 | 1.196032e+06 |  49.06%| unknown
  114s|     1 |     0 |872790 |     - |    31M |   0 | 662 |1555 |2481 |3377 | 62 |  42 |   0 | 8.024427e+05 | 1.196032e+06 |  49.05%| unknown
  114s|     1 |     0 |872795 |     - |    31M |   0 | 662 |1555 |2337 |3377 | 62 |  42 |   0 | 8.024430e+05 | 1.196032e+06 |  49.05%| unknown
  115s|     1 |     0 |886588 |     - |    31M |   0 | 662 |1555 |2390 |3430 | 63 |  42 |   0 | 8.024755e+05 | 1.196032e+06 |  49.04%| unknown
  115s|     1 |     0 |886591 |     - |    31M |   0 | 662 |1555 |2389 |3430 | 63 |  42 |   0 | 8.024760e+05 | 1.196032e+06 |  49.04%| unknown
o 116s|     1 |     0 |893031 |     - |feaspump|   0 | 662 |1555 |2389 |3430 | 63 |  42 |   0 | 8.024760e+05 | 1.196031e+06 |  49.04%| unknown
d 122s|     1 |     0 |940134 |     - |conflict|   0 | 662 |1565 |2389 |   0 | 63 |  52 |   0 | 8.024760e+05 | 1.163264e+06 |  44.96%| unknown
  122s|     1 |     0 |940255 |     - |    31M |   0 | 662 |1565 |2389 |3430 | 63 |  52 |   0 | 8.024760e+05 | 1.163264e+06 |  44.96%| unknown
  124s|     1 |     0 |953829 |     - |    31M |   0 | 662 |1566 |2437 |3478 | 64 |  53 |   0 | 8.025056e+05 | 1.163264e+06 |  44.95%| unknown
 time | node  | left  |LP iter|LP it/n|mem/heur|mdpt |vars |cons |rows |cuts |sepa|confs|strbr|  dualbound   | primalbound  |  gap   | compl. 
  124s|     1 |     0 |953833 |     - |    31M |   0 | 662 |1567 |2436 |3478 | 64 |  54 |   0 | 8.025060e+05 | 1.163264e+06 |  44.95%| unknown
  126s|     1 |     0 |967535 |     - |    31M |   0 | 662 |1567 |2466 |3508 | 65 |  54 |   0 | 8.025060e+05 | 1.163264e+06 |  44.95%| unknown
  128s|     1 |     2 |967642 |     - |    31M |   0 | 662 |1568 |2466 |3508 | 65 |  55 |  11 | 8.025060e+05 | 1.163264e+06 |  44.95%| unknown
* 143s|     6 |     5 |  1084k|34036.8 |    LP  |   5 | 662 |1567 |2072 |3707 |  0 |  55 |  11 | 8.025060e+05 | 1.097728e+06 |  36.79%| unknown
